objective value:                                   -3
t_n_13                                              1 	(obj:-1)
t_n_1072                                            1 	(obj:-1)
t_n_1991                                            1 	(obj:-1)
